723,140
573,193
540,212
501,406
552,805
871,780
606,-68
1020,160
681,226
721,326
708,321
977,452
1162,161
1020,160
829,429
977,452
972,617
624,388
368,305
501,406
364,842
505,648
667,318
716,358
721,326
575,512
552,805
364,842
464,833
624,388
663,349
539,360
681,616
803,646
830,700
829,862
762,566
972,617
799,424
762,566
464,833
